r = [
0,28,12,31,36,12,36,12,9,34,1,23,17,1,7,31,17,23,16,16,20,21,19,23,5,22,0
];
p = [
0,24,23,22,30,10,23,5,23,28,17,11,15,18,20,11,19,8,27,24,19,7,10,13,21,11,0
];
e = [
0,15,15,2,17,9,1,7,6,5,1,18,14,19,15,7,10,4,16,15,18,20,16,11,14,10,0
];
d = [
0,437,421,436,416,420,432,427,424,436,402,400,408,414,405,413,408,396,423,408,412,417,434,423,419,434,439
];
d_bar = [
0,439,423,438,419,421,434,428,426,439,404,401,410,416,407,414,410,397,426,410,414,418,435,424,421,435,439
];
w = [
0,7.5,7.5,1,5.666666667,9,0.5,7,3,1.666666667,0.5,18,7,9.5,7.5,7,5,4,5.333333333,7.5,9,20,16,11,7,10,0
];
